c turning on binary mode checking
c parsing input formula with 202048 variables and 780990 clauses
c finished parsing, read 2309616 bytes from proof file
c detected empty clause; start verification via backward checking
c 1513 of 780990 clauses in core                            
c 450 of 92864 lemmas in core using 9735 resolution steps
c 0 RAT lemmas in core; 30 redundant literals in core lemmas
s VERIFIED
c verification time: 0.917 seconds
